<number of tasks>
50

<cycle time>
1000

<order strength>
0.197


<task times>
1 461
2 427
3 526
4 598
5 487
6 490
7 592
8 514
9 541
10 523
11 485
12 364
13 440
14 529
15 341
16 443
17 672
18 735
19 688
20 641
21 460
22 608
23 361
24 429
25 525
26 564
27 475
28 461
29 625
30 547
31 542
32 537
33 359
34 516
35 558
36 637
37 455
38 473
39 513
40 498
41 461
42 551
43 628
44 528
45 614
46 733
47 612
48 380
49 636
50 610

<precedence relations>
1,34
2,9
3,10
3,11
4,13
6,8
6,12
7,14
7,15
8,34
9,20
10,17
11,19
12,18
13,21
14,16
14,22
16,34
17,24
18,25
19,23
20,28
21,27
22,26
23,34
24,30
25,29
27,31
27,44
28,32
28,33
29,34
30,36
30,37
31,38
33,35
34,39
34,40
34,41
34,42
34,44
35,43
36,45
37,46
41,50
43,47
44,48
45,49

<end>
